247 47
184 51
519 59
653 63
581 66
826 66
766 70
293 80
451 82
710 82
173 107
421 137
292 140
846 148
627 157
687 175
576 183
174 187
400 192
295 203
846 207
632 215
231 218
350 226
400 263
710 276
842 278
604 279
779 285
412 320
567 327
856 355
565 389
853 420
411 433
564 459
853 497
562 534
408 537
408 612
554 637
839 645
620 648
751 649
679 651
508 674
416 682
575 693
735 729
495 731
554 749
678 752
790 751
795 823
570 828
677 842
570 898
677 922
795 933
741 954
553 964
365 987
461 990
522 1028
414 1043
